; benchmark generated from python API
(set-info :status unknown)
(declare-datatypes ((RealState 0)) (((RMk1 (rval1 Real)) (RMk2 (rval2 Real)))))
 (declare-fun I2uscore1dollarskuscore106 () Real)
(declare-fun ep () Real)
(declare-fun V () Real)
(declare-fun v2uscore1dollarskuscore106 () Real)
(declare-fun v1uscore1dollarskuscore106 () Real)
(declare-fun t109uscore0 () Real)
(declare-fun x1uscore1dollarskuscore89 () Real)
(declare-fun xI1 () Real)
(declare-fun A () Real)
(declare-fun v2 () Real)
(declare-fun v1 () Real)
(declare-fun B () Real)
(declare-fun x2 () Real)
(declare-fun xI2 () Real)
(declare-fun I2 () Real)
(declare-fun x1 () Real)
(declare-fun I1 () Real)
(declare-fun I1uscore1dollarskuscore106 () Real)
(assert
 (let (($x56 (exists ((ts109uscore0_st RealState) (val!39 Real) )(let (($x127 (or (= 2.0 2.0) (= I2uscore1dollarskuscore106 2.0))))
 (let (($x239 (and (>= v1uscore1dollarskuscore106 0.0) (<= v1uscore1dollarskuscore106 V))))
 (let (($x193 (and (and $x239 (>= v2uscore1dollarskuscore106 0.0)) (<= v2uscore1dollarskuscore106 V))))
 (let (($x64 (=> (and (<= 0.0 (rval2 ts109uscore0_st)) (<= (rval2 ts109uscore0_st) t109uscore0)) (and $x193 (<= (+ (rval2 ts109uscore0_st) 0.0) ep)))))
 (let (($x77 (>= t109uscore0 0.0)))
 (let (($x196 (= xI1 x1uscore1dollarskuscore89)))
 (let (($x58 (and (= v2uscore1dollarskuscore106 V) (= I2uscore1dollarskuscore106 0.0))))
 (let (($x73 (and (and $x58 (= v1uscore1dollarskuscore106 0.0)) (= I1uscore1dollarskuscore106 1.0))))
 (let (($x54 (and (and $x73 (< xI1 x1uscore1dollarskuscore89)) (= I1uscore1dollarskuscore106 2.0))))
 (let (($x159 (and (and (and $x54 (= I1 2.0)) (< xI1 x1)) (= I2 2.0))))
 (let (($x192 (and (and (and $x159 (< xI2 x2)) (> B 0.0)) (>= v1 0.0))))
 (let (($x195 (and (and (and (and $x192 (<= v1 V)) (>= v2 0.0)) (<= v2 V)) (>= A 0.0))))
 (let (($x188 (and (and $x195 (> V 0.0)) (> ep 0.0))))
 (let (($x94 (not (= ts109uscore0_st (RMk1 val!39)))))
 (and $x94 (=> $x188 (or $x196 (=> (and $x77 $x64) $x127)))))))))))))))))))
 ))
 (not $x56)))
(check-sat)
